n=30;
m=42;
ciudades=[|0,5
|2, 24
|19, 8
|4, 1
|6, 30
|16, 4
|16, 9
|28, 7
|19, 30
|29, 10
|12, 22
|29, 11
|30, 12
|19, 15
|18, 13
|3, 26
|14, 29
|12, 14
|12, 18
|3, 12
|2, 12
|15, 18
|1, 25
|25, 16
|24, 11
|5, 27
|2, 15
|13, 19
|27, 7
|27, 26
|30, 14
|8, 0
|13, 21
|8, 11
|22, 13
|11, 17
|6, 21
|21, 21
|11, 13
|8, 26
|12, 23
|9, 20
|];
